0001 30
0002 12
0003 22
0004 34
0005 28
0006 30
0007 28
0008 35
0009 23
0010 11
0011 10
0012 19
0013 31
0014 32
0015 5
0016 30
0017 35
0018 32
0019 33
0020 31
0021 9
0022 5
0023 1
0024 33
0025 26
0026 32
0027 32
0028 35
0029 6
0030 21
0031 21
0032 35
0033 26
0034 11
0035 33
0036 32
0037 25
0038 28
0039 31
0040 34
0041 35
0042 32
0043 35
0044 33
0045 34
0046 35
0047 30
0048 29
0049 9
0050 15
0051 19
0052 34
0053 25
0054 7
0055 27
0056 26
0057 35
0058 26
0059 29
0060 27
0061 3
0062 27
0063 25
0064 26
0065 22
0066 27
0067 23
0068 21
0069 21
0070 33
0071 14
0072 34
0073 27
0074 18
0075 32
0076 31
0077 35
0078 8
0079 34
0080 29
0081 30
0082 32
0083 29
0084 34
0085 22
0086 32
0087 28
0088 34
0089 30
0090 34
0091 23
0092 35
0093 25
0094 30
0095 33
0096 30
0097 15
0098 16
0099 16
0100 20
0101 30
0102 14
0103 28
0104 29
0105 33
0106 24
0107 35
0108 23
0109 22
0110 8
0111 21
0112 27
0113 29
0114 31
0115 28
0116 34
0117 20
0118 26
0119 13
0120 34
0121 25
0122 35
0123 4
0124 18
0125 8
0126 32
0127 33
0128 31
0129 33
0130 34
0131 35
0132 28
0133 24
0134 30
0135 33
0136 23
0137 22
0138 9
0139 29
0140 27
0141 31
0142 28
0143 33
0144 24
0145 21
0146 32
0147 12
0148 9
0149 4
0150 32
0151 31
0152 18
0153 30
0154 34
0155 14
0156 33
0157 32
0158 20
0159 8
0160 35
0161 26
0162 35
0163 33
0164 29
0165 24
0166 5
0167 9
0168 35
0169 18
0170 22
0171 14
0172 12
0173 24
0174 27
0175 33
0176 34
0177 25
0178 31
0179 33
0180 31
0181 25
0182 19
0183 10
0184 21
0185 20
0186 30
0187 20
0188 14
0189 35
0190 32
0191 22
0192 34
0193 28
0194 32
0195 33
0196 12
0197 33
0198 27
0199 5
0200 15
0201 22
0202 29
0203 8
0204 6
0205 24
0206 26
0207 32
0208 31
0209 30
0210 7
0211 25
0212 21
0213 33
0214 34
0215 19
0216 30
0217 32
0218 35
0219 33
0220 25
0221 4
0222 34
0223 33
0224 31
0225 32
0226 35
0227 28
0228 33
0229 34
0230 30
0231 33
0232 33
0233 33
0234 35
0235 33
0236 30
0237 34
0238 26
0239 26
0240 9
0241 14
0242 23
0243 31
0244 6
0245 34
0246 32
0247 10
0248 3
0249 14
0250 29
0251 6
0252 26
0253 23
0254 29
0255 21
0256 20
0257 28
0258 30
0259 18
0260 29
0261 5
0262 29
0263 16
0264 18
0265 18
0266 31
0267 25
0268 35
0269 31
0270 23
0271 24
0272 33
0273 27
0274 33
0275 35
0276 22
0277 27
0278 32
0279 25
0280 34
0281 26
0282 32
0283 35
0284 31
0285 28
0286 21
0287 31
0288 24
0289 26
0290 29
0291 33
0292 35
0293 35
0294 35
0295 29
0296 30
0297 15
0298 35
0299 14
0300 35
0301 34
0302 33
0303 35
0304 28
0305 26
0306 23
0307 23
0308 35
0309 26
0310 28
0311 27
0312 25
0313 29
0314 18
0315 31
0316 24
0317 33
0318 35
0319 30
0320 29
0321 31
0322 32
0323 34
0324 35
0325 18
0326 35
0327 35
0328 34
0329 35
0330 34
0331 31
0332 31
0333 26
0334 33
0335 35
0336 35
0337 35
0338 21
0339 31
0340 33
0341 34
0342 32
0343 35
0344 33
0345 35
0346 31
0347 33
0348 32
0349 26
0350 31
0351 31
0352 8
0353 8
0354 32
0355 18
0356 1
0357 32
0358 9
0359 13
0360 9
0361 30
0362 8
0363 25
0364 32
0365 22
0366 14
0367 31
0368 32
0369 15
0370 33
0371 34
0372 30
0373 9
0374 7
0375 25
0376 35
0377 34
0378 33
0379 34
0380 30
0381 31
0382 28
0383 34
0384 35
0385 1
0386 32
0387 22
0388 32
0389 20
0390 31
0391 17
0392 28
0393 30
0394 24
0395 35
0396 29
0397 33
0398 21
0399 27
0400 30
0401 31
0402 14
0403 26
0404 23
0405 30
0406 25
0407 25
0408 35
0409 32
0410 29
0411 32
0412 35
0413 33
0414 32
0415 35
0416 23
0417 35
0418 32
0419 31
0420 15
0421 35
0422 35
0423 26
0424 33
0425 31
0426 22
0427 24
0428 35
0429 33
0430 30
0431 34
0432 25
0433 26
0434 21
0435 28
0436 17
0437 9
0438 22
0439 14
0440 19
0441 25
0442 31
0443 31
0444 35
0445 34
0446 25
0447 4
0448 27
0449 2
0450 26
0451 14
0452 35
0453 29
0454 21
0455 19
0456 31
0457 35
0458 30
0459 34
0460 34
0461 23
0462 32
0463 33
0464 26
0465 4
0466 29
0467 18
0468 28
0469 29
0470 30
0471 34
0472 31
0473 35
0474 33
0475 27
0476 29
0477 34
0478 33
0479 35
0480 35
0481 34
0482 2
0483 27
0484 18
0485 17
0486 33
0487 28
0488 24
0489 28
0490 25
0491 19
0492 32
0493 30
0494 22
0495 29
0496 23
0497 35
0498 1
0499 30
0500 31
0501 26
0502 32
0503 34
0504 30
0505 31
0506 34
0507 8
0508 35
0509 30
0510 12
0511 28
0512 35
0513 7
0514 7
0515 20
0516 32
0517 10
0518 15
0519 28
0520 22
0521 7
0522 9
0523 18
0524 33
0525 29
0526 31
0527 34
0528 26
0529 27
0530 32
0531 30
0532 35
0533 33
0534 34
0535 17
0536 21
0537 34
0538 35
0539 32
0540 35
0541 28
0542 35
0543 30
0544 34
0545 30
0546 31
0547 35
0548 35
0549 35
0550 34
0551 35
0552 33
0553 29
0554 35
0555 32
0556 35
0557 35
0558 29
0559 32
0560 35
0561 34
0562 31
0563 34
0564 35
0565 34
0566 32
0567 32
0568 33
0569 31
0570 30
0571 35
0572 30
0573 31
0574 13
0575 23
0576 32
0577 35
0578 28
0579 29
0580 33
0581 27
0582 34
0583 22
0584 35
0585 30
0586 34
0587 28
0588 24
0589 24
0590 24
0591 31
0592 35
0593 26
0594 34
0595 9
0596 35
0597 18
0598 15
0599 32
0600 24
0601 24
0602 12
0603 32
0604 35
0605 34
0606 8
0607 31
0608 22
0609 25
0610 21
0611 23
0612 32
0613 34
0614 25
0615 22
0616 34
0617 35
0618 33
0619 32
0620 33
0621 35
0622 34
